-78 -82 10 9
-156 60 7 8
-114 -197 9 2
-63 -159 7 0
187 93 7 8
44 -83 4 9
-18 -158 10 4
117 -63 5 2
-82 200 4 3
125 49 9 2
-26 -69 2 9
-145 76 9 9
-19 170 3 6
-20 -118 8 10
-45 -77 7 0
-40 18 0 8
82 116 10 2
79 -90 5 8
-115 -172 1 8
-89 76 9 9
